; benchmark generated from python API
(set-info :status unknown)
(declare-fun S_1 () Real)
(declare-fun A_3 () Real)
(declare-fun L_2 () Real)
(declare-fun S_3 () Real)
(declare-fun S_4 () Real)
(declare-fun S_0 () Real)
(declare-fun A_1 () Real)
(declare-fun L_1 () Real)
(declare-fun L_0 () Real)
(declare-fun A_0 () Real)
(declare-fun A_4 () Real)
(declare-fun A_2 () Real)
(declare-fun S_2 () Real)
(assert
 (let (($x2609 (<= (+ (* (- 1.0) S_3) (* (- 1.0) A_0) (* 2.0 S_1) L_0) 0.0)))
 (let (($x34 (>= L_0 0.0)))
 (let ((?x371 (* (- 1.0) A_3)))
 (let ((?x1001 (* 2.0 L_2)))
 (let ((?x368 (* (- 1.0) A_2)))
 (let ((?x241 (* (- 1.0) L_1)))
 (let ((?x1002 (+ ?x241 A_1 S_4 ?x368 ?x1001 ?x371)))
 (let (($x22779 (<= (+ (* 2.0 S_4) ?x368 (* 3.0 L_2) (* (- 2.0) A_3) S_0) (- 5.0))))
 (let (($x61 (= L_2 L_1)))
 (let ((?x374 (* (- 1.0) A_4)))
 (let ((?x1022 (* (- 2.0) A_2)))
 (let ((?x8537 (+ ?x241 A_1 S_4 ?x1022 ?x1001 ?x374 A_3)))
 (let ((?x4492 (* 2.0 A_3)))
 (let ((?x4533 (* (- 2.0) A_4)))
 (let ((?x1034 (* 3.0 L_2)))
 (let ((?x1033 (* (- 3.0) A_2)))
 (let ((?x6422 (* 2.0 S_4)))
 (let (($x22775 (or $x61 (<= (+ ?x6422 ?x1033 ?x1034 ?x4533 ?x4492 S_0) (- 5.0)) (<= ?x8537 (- 5.0)))))
 (let (($x15789 (<= (+ ?x241 A_1 S_4 (* (- 1.0) S_3) ?x368 L_2 ?x374 A_3) 0.0)))
 (let (($x19083 (or $x61 (<= (+ ?x6422 (* (- 1.0) S_3) ?x1022 ?x1001 ?x4533 ?x4492 S_0) 0.0) $x15789)))
 (let (($x21293 (or $x61 (<= (+ S_4 (* (- 1.0) S_3) ?x368 L_2 ?x374 A_3 S_1) 0.0))))
 (let (($x22718 (or $x61 (<= (+ (* (/ 1.0 2.0) S_4) ?x368 L_2 (* (/ 1.0 2.0) S_0)) (- 5.0)) (<= (+ (* (- 2.0) L_1) (* 2.0 A_1) S_4 ?x1033 ?x1034) (- 15.0)))))
 (let (($x21164 (<= 0.0 (+ L_1 (* (- 1.0) A_1) S_2))))
 (let (($x22666 (or $x61 (<= (+ S_4 ?x368 L_2 ?x374 A_3 (* (- 1.0) S_2) S_0) 0.0) $x21164)))
 (let ((?x7315 (* (/ 1.0 2.0) A_3)))
 (let ((?x3516 (* (- (/ 1.0 2.0)) A_4)))
 (let ((?x2853 (* (/ 1.0 2.0) S_4)))
 (let (($x18531 (<= (+ (* (/ 3.0 2.0) L_1) (* (- (/ 3.0 2.0)) A_1) ?x2853 ?x3516 ?x7315 S_0) (- 5.0))))
 (let (($x51 (= L_1 L_0)))
 (let ((?x346 (* (- 1.0) S_2)))
 (let ((?x7621 (* (- (/ 1.0 2.0)) A_1)))
 (let ((?x9091 (* (/ 1.0 2.0) L_1)))
 (let (($x9935 (<= (+ L_1 (* (- 1.0) A_1) S_4 (* (- 1.0) S_3) ?x374 A_3 S_0) 0.0)))
 (let (($x22254 (or $x61 (<= (+ (* (/ 1.0 3.0) S_4) ?x368 L_2 (* (/ 2.0 3.0) S_1)) (- 5.0)))))
 (let (($x22253 (or $x61 (<= (+ ?x368 L_2 (* (/ 3.0 2.0) S_1) (* (- (/ 1.0 2.0)) S_0)) (- 5.0)))))
 (let ((?x3407 (* 2.0 S_1)))
 (let ((?x366 (* (- 1.0) A_1)))
 (let (($x32800 (or $x51 (<= (+ L_1 ?x366 S_4 (* (- 2.0) S_3) ?x374 A_3 ?x3407) 0.0))))
 (let (($x1007 (<= (+ (* (- 1.0) S_4) (* (- 1.0) L_2) A_3) 0.0)))
 (let (($x11424 (or $x1007 (<= (+ (* (- 3.0) S_4) (* 4.0 S_2) (* (- 1.0) S_0)) 0.0))))
 (let ((?x1035 (* (- 1.0) S_0)))
 (let ((?x1422 (* 5.0 L_2)))
 (let ((?x1421 (* (- 5.0) A_2)))
 (let ((?x1420 (* 5.0 A_1)))
 (let ((?x1419 (* (- 5.0) L_1)))
 (let (($x22152 (or $x61 (<= (+ ?x368 L_2 S_0) (- 15.0)) (<= (+ ?x241 A_1 ?x368 L_2) (- 10.0)))))
 (let (($x13157 (or $x1007 (<= (+ (* (- 2.0) S_4) (* 3.0 S_2) (* (- 1.0) S_1)) 0.0))))
 (let (($x22111 (or $x1007 (<= (+ (* (- 1.0) S_4) S_0) (- 15.0)) (<= (+ ?x241 A_1 (* (- 1.0) S_4)) (- 10.0)))))
 (let (($x503 (<= 0.0 (+ ?x241 L_0))))
 (let ((?x1410 (* 4.0 L_2)))
 (let ((?x1409 (* (- 4.0) A_2)))
 (let ((?x1408 (* 4.0 A_1)))
 (let ((?x1407 (* (- 4.0) L_1)))
 (let (($x33184 (or $x61 (<= (+ ?x1407 ?x1408 S_4 ?x1409 ?x1410 (* (- 1.0) S_1)) 0.0))))
 (let (($x24742 (or $x61 (<= (+ ?x1407 ?x1408 S_4 ?x1409 ?x1410 (* (- 1.0) A_0) L_0) 0.0))))
 (let (($x21273 (or $x51 $x1007 (<= (+ L_1 ?x366 (* (- 1.0) S_4) (* 2.0 S_2)) (- 5.0)))))
 (let (($x11289 (<= (+ (* (- 2.0) S_4) (* (- 1.0) A_0) (* 3.0 S_2) L_0) 0.0)))
 (let ((?x1308 (* (- 3.0) L_2)))
 (let ((?x1368 (* 3.0 A_2)))
 (let ((?x360 (* (- 1.0) S_4)))
 (let ((?x1321 (* (- 3.0) A_1)))
 (let ((?x1363 (* 3.0 L_1)))
 (let (($x33181 (or $x51 $x1007 (<= (+ L_1 ?x366 ?x360 A_2 (* (- 1.0) L_2) S_2) 0.0))))
 (let ((?x1028 (* (- 2.0) L_2)))
 (let ((?x1027 (* 2.0 A_2)))
 (let ((?x1026 (* (- 2.0) A_1)))
 (let ((?x1025 (* 2.0 L_1)))
 (let (($x21896 (or (not (<= 0.0 (+ L_1 ?x366 (* (/ 1.0 2.0) S_3) (* (/ 1.0 2.0) S_0)))) (<= (+ ?x241 A_1 S_4 (* (- 1.0) S_3) L_2 ?x371) 0.0))))
 (let (($x21899 (<= 0.0 (+ L_1 ?x366 (* (/ 1.0 2.0) S_3) (* (/ 1.0 2.0) S_0)))))
 (let (($x19762 (or $x21899 (<= (+ S_4 (* (- (/ 1.0 2.0)) S_3) L_2 ?x371 (* (/ 1.0 2.0) S_0)) 0.0))))
 (let (($x4914 (<= (+ ?x360 (* (- 2.0) A_0) (* 3.0 S_1) (* 2.0 L_0)) 0.0)))
 (let (($x20619 (or (<= (+ (* (- (/ 1.0 2.0)) S_3) (* (/ 1.0 2.0) S_0)) (- 5.0)) (<= (+ ?x241 A_1 (* (- 1.0) S_3)) (- 5.0)))))
 (let (($x24755 (or $x51 (<= (+ ?x1025 ?x1026 (* (- 1.0) S_3) ?x1027 ?x1028 S_0) 0.0))))
 (let ((?x340 (* (- 1.0) S_1)))
 (let ((?x1032 (* 3.0 A_1)))
 (let ((?x1031 (* (- 3.0) L_1)))
 (let (($x32859 (or $x61 (<= (+ ?x1031 ?x1032 S_3 ?x1033 ?x1034 (* (- 1.0) A_0) L_0) 0.0))))
 (let (($x6091 (<= (+ (* (- 2.0) L_1) (* 2.0 A_1) S_3 ?x1022 ?x1001 ?x346) 0.0)))
 (let (($x7785 (<= (+ (* (- 2.0) L_1) (* 2.0 A_1) S_4 (* (- 3.0) S_3)) 0.0)))
 (let (($x5080 (<= (+ (* (- 2.0) L_1) (* 2.0 A_1) ?x1022 ?x1001 S_1 ?x1035) 0.0)))
 (let (($x24694 (or $x61 (<= (+ ?x241 A_1 ?x368 L_2 (* (- 1.0) A_0) S_1 L_0) 0.0))))
 (let (($x32621 (or $x51 (<= (+ L_1 ?x366 A_2 (* (- 1.0) L_2) ?x346 S_0) 0.0))))
 (let (($x5138 (<= (+ L_1 ?x366 (* (- 1.0) S_3) A_2 (* (- 1.0) L_2) S_1) 0.0)))
 (let (($x15312 (or $x51 (<= (+ L_1 ?x366 (* (/ 1.0 4.0) S_4) (* (/ 3.0 4.0) S_0)) (- 5.0)))))
 (let (($x12775 (or $x51 (<= (+ L_1 ?x366 (* (/ 1.0 2.0) S_2) (* (/ 1.0 2.0) S_0)) (- 5.0)))))
 (let ((?x353 (* (- 1.0) S_3)))
 (let ((?x1021 (* 2.0 A_1)))
 (let ((?x1020 (* (- 2.0) L_1)))
 (let (($x32592 (or $x61 (<= (+ ?x1020 ?x1021 ?x1022 ?x1001 (* (- 1.0) A_0) S_2 L_0) 0.0))))
 (let (($x108 (>= S_1 S_0)))
 (let (($x111 (>= S_2 S_1)))
 (let (($x114 (>= S_3 S_2)))
 (let (($x117 (>= S_4 S_3)))
 (let (($x119 (>= A_1 A_0)))
 (let (($x121 (>= A_3 A_2)))
 (let (($x122 (>= A_4 A_3)))
 (and (not (<= (+ A_2 (* (- 1.0) L_2)) S_3)) $x122 $x121 $x119 $x117 $x114 $x111 $x108 (<= (+ A_1 ?x241) S_3) (or (not $x503) $x51) (or $x61 (<= (+ ?x368 L_2 S_2) (- 5.0))) (or $x61 (<= (+ ?x241 A_1 ?x368 L_2) (- 5.0))) $x32592 (or $x61 (<= (+ ?x1020 ?x1021 ?x1022 ?x1001 S_2 ?x340) 0.0)) (or $x61 (<= (+ ?x1031 ?x1032 ?x1033 ?x1034 S_2 ?x1035) 0.0)) (or $x61 (<= ?x1002 0.0)) (or $x51 (<= (+ L_1 ?x366 S_1) (- 5.0))) (or $x51 (<= (+ L_1 ?x366 S_0) (- 10.0))) (or $x61 (<= (+ ?x1020 ?x1021 S_4 ?x1033 ?x1034) (- 5.0))) (or $x61 (<= (+ ?x1020 ?x1021 S_4 ?x353 ?x1022 ?x1001) 0.0)) $x12775 $x15312 (or $x21164 (<= (+ (* (/ 1.0 4.0) S_4) ?x346 (* (/ 3.0 4.0) S_0)) 0.0)) (or $x61 (not (<= 0.0 (+ L_1 (* (- 1.0) L_2))))) (or $x51 $x5138) $x32621 $x24694 (or $x61 $x5080) (or (<= (+ ?x2853 ?x353 (* (/ 1.0 2.0) S_0)) 0.0) $x7785) (or $x61 $x6091) (or $x61 (<= (+ ?x1031 ?x1032 S_4 ?x1033 ?x1034 ?x346) 0.0)) $x32859 (or $x61 (<= (+ ?x1031 ?x1032 S_3 ?x1033 ?x1034 ?x340) 0.0)) $x24755 $x20619 (or $x1007 $x4914) $x19762 $x21896 (or $x61 (<= (+ ?x368 L_2 S_1) (- 10.0))) (or (<= (+ ?x346 S_0) (- 5.0)) $x21164) (or $x51 (<= (+ ?x1025 ?x1026 A_2 (* (- 1.0) L_2) S_0) (- 5.0))) (or $x51 $x1007 (<= (+ ?x1025 ?x1026 ?x360 ?x1027 ?x1028 S_1) 0.0)) (or $x21164 (<= (+ S_3 (* (- 3.0) S_2) (* 2.0 S_0)) 0.0)) $x33181 (or $x51 $x1007 (<= (+ ?x1363 ?x1321 ?x360 ?x1368 ?x1308 S_0) 0.0)) (or $x1007 (<= (+ ?x360 S_2) (- 5.0))) (or $x1007 $x11289) (or $x61 (<= (+ ?x368 L_2 (* (- 1.0) A_0) ?x3407 L_0) (- 5.0))) (or $x1007 (<= (+ ?x9091 ?x7621 (* (- (/ 1.0 2.0)) S_4) S_2) 0.0)) (or $x1007 (<= (+ (* (- (/ 1.0 2.0)) S_4) (* (/ 1.0 2.0) S_1)) (- 5.0))) $x21273 $x24742 $x33184 (or (<= ?x8537 0.0) (<= 0.0 (+ L_1 (* (- 1.0) L_2)))) (or (<= (+ S_4 L_2 ?x371 ?x346 S_0) 0.0) $x21164) (or $x61 (<= (+ ?x1407 ?x1408 S_3 ?x1409 ?x1410 ?x1035) 0.0)) (or $x503 (<= (+ L_1 ?x366 S_4 L_2 ?x371 S_0) (- 5.0))) $x22111 $x13157 $x22152 (or $x61 (<= (+ ?x1419 ?x1420 S_4 ?x1421 ?x1422 ?x1035) 0.0)) $x11424 (or $x1007 (<= (+ ?x360 ?x3407 ?x1035) 0.0)) $x32800 $x22253 $x22254 (or $x51 $x9935) (or $x51 (<= (+ ?x9091 ?x7621 ?x2853 ?x3516 ?x7315 ?x346 S_0) 0.0)) (or $x51 $x18531) $x22666 $x22718 $x21293 (or $x61 (<= (+ S_4 ?x1022 ?x1001 ?x374 A_3 S_1) (- 5.0))) $x19083 $x22775 (or $x61 (<= (+ S_4 ?x368 ?x1001 ?x371 S_1) (- 5.0))) (or $x61 $x22779 (<= ?x1002 (- 5.0))) $x34 (<= (+ (* (- 1.0) A_0) S_0 L_0) 0.0) (<= (+ S_4 L_2 ?x374) 0.0) (<= (+ ?x353 S_1) (- 5.0)) (<= (+ (* (/ 1.0 3.0) S_4) ?x353 (* (/ 2.0 3.0) S_1)) 0.0) $x2609 (<= (+ L_1 ?x366 S_1) 0.0) (<= (+ ?x353 (* (/ 3.0 2.0) S_1) (* (- (/ 1.0 2.0)) S_0)) 0.0) (<= (+ S_4 ?x353 L_2 ?x371 S_1) 0.0)))))))))))))))))))))))))))))))))))))))))))))))))))))))))))))))))))))))))))))))))))))))))))))))))))
(check-sat)
